certificates/rado_a15_c222_N38.cnf
c Rad2 upper bound instance: x1 + 15*x2 - x3 = 222, interval [1,38]
p cnf 38 194
1 4 15 0
-1 -4 -15 0
1 16 19 0
-1 -16 -19 0
1 17 34 0
-1 -17 -34 0
2 5 15 0
-2 -5 -15 0
2 16 20 0
-2 -16 -20 0
2 17 35 0
-2 -17 -35 0
3 6 15 0
-3 -6 -15 0
3 16 21 0
-3 -16 -21 0
3 17 36 0
-3 -17 -36 0
4 7 15 0
-4 -7 -15 0
4 16 22 0
-4 -16 -22 0
4 17 37 0
-4 -17 -37 0
5 8 15 0
-5 -8 -15 0
5 16 23 0
-5 -16 -23 0
5 17 38 0
-5 -17 -38 0
6 9 15 0
-6 -9 -15 0
6 16 24 0
-6 -16 -24 0
7 10 15 0
-7 -10 -15 0
7 16 25 0
-7 -16 -25 0
8 11 15 0
-8 -11 -15 0
8 16 26 0
-8 -16 -26 0
9 12 15 0
-9 -12 -15 0
9 16 27 0
-9 -16 -27 0
10 13 15 0
-10 -13 -15 0
10 16 28 0
-10 -16 -28 0
11 14 15 0
-11 -14 -15 0
11 16 29 0
-11 -16 -29 0
12 15 0
-12 -15 0
12 16 30 0
-12 -16 -30 0
1 13 14 0
-1 -13 -14 0
13 15 16 0
-13 -15 -16 0
13 16 31 0
-13 -16 -31 0
2 14 0
-2 -14 0
14 15 17 0
-14 -15 -17 0
14 16 32 0
-14 -16 -32 0
3 14 15 0
-3 -14 -15 0
15 18 0
-15 -18 0
15 16 33 0
-15 -16 -33 0
4 14 16 0
-4 -14 -16 0
15 16 19 0
-15 -16 -19 0
16 34 0
-16 -34 0
5 14 17 0
-5 -14 -17 0
15 17 20 0
-15 -17 -20 0
16 17 35 0
-16 -17 -35 0
6 14 18 0
-6 -14 -18 0
15 18 21 0
-15 -18 -21 0
16 18 36 0
-16 -18 -36 0
7 14 19 0
-7 -14 -19 0
15 19 22 0
-15 -19 -22 0
16 19 37 0
-16 -19 -37 0
8 14 20 0
-8 -14 -20 0
15 20 23 0
-15 -20 -23 0
16 20 38 0
-16 -20 -38 0
9 14 21 0
-9 -14 -21 0
15 21 24 0
-15 -21 -24 0
10 14 22 0
-10 -14 -22 0
15 22 25 0
-15 -22 -25 0
11 14 23 0
-11 -14 -23 0
15 23 26 0
-15 -23 -26 0
12 14 24 0
-12 -14 -24 0
15 24 27 0
-15 -24 -27 0
13 14 25 0
-13 -14 -25 0
15 25 28 0
-15 -25 -28 0
14 26 0
-14 -26 0
15 26 29 0
-15 -26 -29 0
14 15 27 0
-14 -15 -27 0
15 27 30 0
-15 -27 -30 0
1 13 28 0
-1 -13 -28 0
14 16 28 0
-14 -16 -28 0
15 28 31 0
-15 -28 -31 0
2 13 29 0
-2 -13 -29 0
14 17 29 0
-14 -17 -29 0
15 29 32 0
-15 -29 -32 0
3 13 30 0
-3 -13 -30 0
14 18 30 0
-14 -18 -30 0
15 30 33 0
-15 -30 -33 0
4 13 31 0
-4 -13 -31 0
14 19 31 0
-14 -19 -31 0
15 31 34 0
-15 -31 -34 0
5 13 32 0
-5 -13 -32 0
14 20 32 0
-14 -20 -32 0
15 32 35 0
-15 -32 -35 0
6 13 33 0
-6 -13 -33 0
14 21 33 0
-14 -21 -33 0
15 33 36 0
-15 -33 -36 0
7 13 34 0
-7 -13 -34 0
14 22 34 0
-14 -22 -34 0
15 34 37 0
-15 -34 -37 0
8 13 35 0
-8 -13 -35 0
14 23 35 0
-14 -23 -35 0
15 35 38 0
-15 -35 -38 0
9 13 36 0
-9 -13 -36 0
14 24 36 0
-14 -24 -36 0
10 13 37 0
-10 -13 -37 0
14 25 37 0
-14 -25 -37 0
11 13 38 0
-11 -13 -38 0
14 26 38 0
-14 -26 -38 0
