certificates/rado_a15_c222_N38.drat
15 -36 0
-36 -37 -38 0
33 36 0
d 33 15 36 0
-16 36 0
-17 -34 -37 0
-37 -38 0
d -36 -37 -38 0
15 16 -38 0
16 -38 0
d 15 16 -38 0
-38 0
-16 0
34 0
20 0
-15 0
12 0
18 0
35 0
-36 0
19 0
13 0
33 0
-8 0
-6 0
-7 0
5 0
11 0
26 0
3 0
9 0
24 0
4 0
10 0
25 0
-32 0
-14 0
-30 0
-31 0
-37 0
0
